n = 20;

R =
[|0,0,6,0,4,0,0,3,3,0,0,0,0,0,0,0,0,0,0,0,
 |0,0,6,0,4,0,0,3,3,0,2,2,0,0,0,0,0,0,0,1,
 |0,6,6,3,4,0,0,3,3,0,2,2,0,0,0,0,0,2,0,9,
 |10,6,6,3,4,9,9,9,9,9,9,9,9,9,0,0,0,2,0,9,
 |10,6,6,3,0,3,3,3,0,0,6,6,6,6,6,6,0,0,0,9,
 |10,6,6,7,7,7,7,7,7,7,0,0,0,0,0,0,0,0,0,9,
 |10,6,0,0,3,3,3,0,0,10,0,0,0,6,6,6,6,6,6,9,
 |10,6,0,1,0,3,0,0,0,10,0,0,0,6,6,6,6,6,6,9,
 |10,4,4,4,4,3,0,0,0,10,4,4,4,4,0,0,0,0,0,9,
 |10,0,0,0,0,3,0,0,0,10,0,0,0,0,0,0,3,3,3,9,
 |10,0,0,0,0,0,0,0,0,10,0,0,0,0,0,0,5,0,0,9,
 |10,0,0,0,0,0,0,0,0,10,0,3,3,3,0,0,5,0,4,7,
 |10,0,0,0,0,0,0,0,1,10,0,0,0,0,0,0,5,0,4,7,
 |9,9,9,9,9,9,9,9,9,10,0,0,0,0,0,0,5,0,4,7,
 |5,5,5,5,5,0,0,0,0,10,0,3,3,3,0,0,5,0,4,7,
 |0,0,0,0,0,0,0,0,0,10,0,0,0,0,0,0,0,0,0,7,
 |0,2,2,0,0,0,0,0,0,0,0,0,0,0,0,0,0,0,0,7,
 |0,0,0,0,0,0,1,0,0,3,3,3,0,0,4,4,4,4,0,7,
 |0,0,0,0,0,0,0,0,0,0,0,0,1,0,0,3,3,3,0,0,
 |0,0,0,0,0,0,0,9,9,9,9,9,9,9,9,9,0,0,0,0,
 |];

